DIMENSION: 150
76
73
48
63
10
113
94
121
79
59
16
133
15
78
88
3
62
149
125
22
104
4
150
115
21
44
45
71
128
68
119
91
106
13
64
112
136
74
123
145
72
80
14
122
77
49
147
144
31
27
129
23
131
32
38
41
101
116
39
57
117
140
60
66
17
130
148
11
61
36
69
127
118
24
12
67
43
109
51
53
40
139
47
120
42
28
9
6
37
2
19
99
114
102
108
29
110
20
25
81
86
70
135
58
141
92
54
134
138
46
90
83
55
50
137
132
65
85
142
18
75
26
56
146
97
143
100
5
107
95
82
7
84
8
124
126
33
105
111
52
93
35
89
96
30
103
98
1
87
34
